c This file describes a weighted CNF in MC 2020 format with 6 variables and 5 clauses 
p wcnf 6 5
w 1 1.6 0
w 2 1.11 0
w 3 1.18 0
w 4 1.28 0
w 5 1.06 0
w 6 0.81
-1 -2 0
-2 3 5 0
c this is a comment and will be ignored
4 5 0
2 -4 0
2 0
